
m=5;																		%numero dei corsi	

corsi 	= ["Calcolo", "Fisica", "Geometria", "Informatica", "Sistemi"];

ac 		= [1,1,3,1,2];														%Anno curricolare per ogni corso

hc 		= [3,5,6,4,3];														%Ore settimanali per ogni corso

k=5; 																		%numero dei docenti

docenti = ["Rossi", "Bianchi", "Verdi", "Miglietta", "Sestini"];

insegna = [|1,0,0,1,1,|
	  		1,0,1,0,0,|
	  		0,0,1,0,1,|
	  		0,1,1,1,1,|
	  		1,1,1,1,1|];